Results/Experiment 1 Results/New Benchmark/RES_20/output_p1_0.25_p2_0.00_n_20_03.txt
solutions: 0 nodes: 0  modelTime: 145  solveTime: 13  totalTime: 160  modelSize: 7358  readTime: 2 matchingSize: 0
