Results/Experiment 2 Results/New Benchmark/output_p1_0.25_p2_0.00_n_20_03.lp
clingo version 5.4.0
Reading from tempSRTISolver.lp ...
Solving...
Answer: 1
matched(1,7) matched(6,8) matched(10,11) matched(9,12) matched(18,14) matched(17,16) matched(14,18) matched(13,20) matched(2,3) matched(5,4) matched(8,6) matched(11,10) matched(12,9) matched(19,15) matched(16,17) matched(15,19) matched(3,2) matched(4,5) matched(20,13) matched(7,1)
Optimization: 104
Answer: 2
matched(1,7) matched(5,8) matched(10,11) matched(9,12) matched(18,14) matched(17,16) matched(14,18) matched(13,20) matched(2,3) matched(6,4) matched(4,6) matched(11,10) matched(12,9) matched(19,15) matched(16,17) matched(15,19) matched(3,2) matched(8,5) matched(20,13) matched(7,1)
Optimization: 101
Answer: 3
matched(1,7) matched(5,8) matched(10,11) matched(9,12) matched(15,14) matched(18,16) matched(16,18) matched(17,20) matched(2,3) matched(6,4) matched(4,6) matched(11,10) matched(12,9) matched(14,15) matched(20,17) matched(13,19) matched(3,2) matched(8,5) matched(19,13) matched(7,1)
Optimization: 85
OPTIMUM FOUND

Models       : 3
  Optimum    : yes
Optimization : 85
Calls        : 1
Time         : 0.028s (Solving: 0.00s 1st Model: 0.00s Unsat: 0.00s)
CPU Time     : 0.028s
